\ File written by HiGHS .lp file handler
min
 obj: +0.1 CMAX +10 T1 +15 T2 +8 T3 
st
 ASGN11: +1 X11M1 +1 X11M2 = +1
 ASGN12: +1 X12M2 +1 X12M3 = +1
 ASGN21: +1 X21M1 +1 X21M3 = +1
 ASGN22: +1 X22M1 +1 X22M2 = +1
 ASGN31: +1 X31M2 +1 X31M3 = +1
 REL1: +1 S11 >= +0
 REL2: +1 S21 >= +2
 REL3: +1 S31 >= +4
 PREC11: +4 X11M1 +5 X11M2 +1 S11 -1 S12 <= +0
 PREC21: +3 X21M1 +5 X21M3 +1 S21 -1 S22 <= +0
 ORD1_0: -1 X11M1 -1 X21M1 +1 Y12M1_0 +1 Y21M1_0 >= -1
 ORD2_0: +1 Y12M1_0 +1 Y21M1_0 <= +1
 DSJAB_0: -200 X11M1 -200 X21M1 -200 Y12M1_0 +1 S11 -1 S21 <= -206
 DSJBA_0: -200 X11M1 -200 X21M1 -200 Y21M1_0 -1 S11 +1 S21 <= -206
 ORD1_1: -1 X11M1 -1 X22M1 +1 Y12M1_1 +1 Y21M1_1 >= -1
 ORD2_1: +1 Y12M1_1 +1 Y21M1_1 <= +1
 DSJAB_1: -200 X11M1 -200 X22M1 -200 Y12M1_1 +1 S11 -1 S22 <= -206
 DSJBA_1: -200 X11M1 -200 X22M1 -200 Y21M1_1 -1 S11 +1 S22 <= -207
 ORD1_2: -1 X11M2 -1 X22M2 +1 Y12M2_2 +1 Y21M2_2 >= -1
 ORD2_2: +1 Y12M2_2 +1 Y21M2_2 <= +1
 DSJAB_2: -200 X11M2 -200 X22M2 -200 Y12M2_2 +1 S11 -1 S22 <= -207
 DSJBA_2: -200 X11M2 -200 X22M2 -200 Y21M2_2 -1 S11 +1 S22 <= -207
 ORD1_3: -1 X11M2 -1 X31M2 +1 Y13M2_3 +1 Y31M2_3 >= -1
 ORD2_3: +1 Y13M2_3 +1 Y31M2_3 <= +1
 DSJAB_3: -200 X11M2 -200 X31M2 -200 Y13M2_3 +1 S11 -1 S31 <= -206
 DSJBA_3: -200 X11M2 -200 X31M2 -200 Y31M2_3 -1 S11 +1 S31 <= -207
 ORD1_4: -1 X12M2 -1 X22M2 +1 Y12M2_4 +1 Y21M2_4 >= -1
 ORD2_4: +1 Y12M2_4 +1 Y21M2_4 <= +1
 DSJAB_4: -200 X12M2 -200 X22M2 -200 Y12M2_4 +1 S12 -1 S22 <= -205
 DSJBA_4: -200 X12M2 -200 X22M2 -200 Y21M2_4 -1 S12 +1 S22 <= -207
 ORD1_5: -1 X12M2 -1 X31M2 +1 Y13M2_5 +1 Y31M2_5 >= -1
 ORD2_5: +1 Y13M2_5 +1 Y31M2_5 <= +1
 DSJAB_5: -200 X12M2 -200 X31M2 -200 Y13M2_5 +1 S12 -1 S31 <= -204
 DSJBA_5: -200 X12M2 -200 X31M2 -200 Y31M2_5 -1 S12 +1 S31 <= -207
 ORD1_6: -1 X22M2 -1 X31M2 +1 Y23M2_6 +1 Y32M2_6 >= -1
 ORD2_6: +1 Y23M2_6 +1 Y32M2_6 <= +1
 DSJAB_6: -200 X22M2 -200 X31M2 -200 Y23M2_6 +1 S22 -1 S31 <= -206
 DSJBA_6: -200 X22M2 -200 X31M2 -200 Y32M2_6 -1 S22 +1 S31 <= -207
 ORD1_7: -1 X12M3 -1 X21M3 +1 Y12M3_7 +1 Y21M3_7 >= -1
 ORD2_7: +1 Y12M3_7 +1 Y21M3_7 <= +1
 DSJAB_7: -200 X12M3 -200 X21M3 -200 Y12M3_7 +1 S12 -1 S21 <= -206
 DSJBA_7: -200 X12M3 -200 X21M3 -200 Y21M3_7 -1 S12 +1 S21 <= -208
 ORD1_8: -1 X12M3 -1 X31M3 +1 Y13M3_8 +1 Y31M3_8 >= -1
 ORD2_8: +1 Y13M3_8 +1 Y31M3_8 <= +1
 DSJAB_8: -200 X12M3 -200 X31M3 -200 Y13M3_8 +1 S12 -1 S31 <= -205
 DSJBA_8: -200 X12M3 -200 X31M3 -200 Y31M3_8 -1 S12 +1 S31 <= -206
 ORD1_9: -1 X21M3 -1 X31M3 +1 Y23M3_9 +1 Y32M3_9 >= -1
 ORD2_9: +1 Y23M3_9 +1 Y32M3_9 <= +1
 DSJAB_9: -200 X21M3 -200 X31M3 -200 Y23M3_9 +1 S21 -1 S31 <= -207
 DSJBA_9: -200 X21M3 -200 X31M3 -200 Y32M3_9 -1 S21 +1 S31 <= -206
 TARD1: +3 X12M2 +4 X12M3 +1 S12 -1 T1 <= +12
 TARD2: +4 X22M1 +4 X22M2 +1 S22 -1 T2 <= +10
 TARD3: +6 X31M2 +5 X31M3 +1 S31 -1 T3 <= +14
 MKSP1: +3 X12M2 +4 X12M3 -1 CMAX +1 S12 <= +0
 MKSP2: +4 X22M1 +4 X22M2 -1 CMAX +1 S22 <= +0
 MKSP3: +6 X31M2 +5 X31M3 -1 CMAX +1 S31 <= +0
bounds
 X11M1 <= 1
 X11M2 <= 1
 X12M2 <= 1
 X12M3 <= 1
 X21M1 <= 1
 X21M3 <= 1
 X22M1 <= 1
 X22M2 <= 1
 X31M2 <= 1
 X31M3 <= 1
 Y12M1_0 <= 1
 Y12M1_1 <= 1
 Y12M2_2 <= 1
 Y12M2_4 <= 1
 Y12M3_7 <= 1
 Y13M2_3 <= 1
 Y13M2_5 <= 1
 Y13M3_8 <= 1
 Y21M1_0 <= 1
 Y21M1_1 <= 1
 Y21M2_2 <= 1
 Y21M2_4 <= 1
 Y21M3_7 <= 1
 Y23M2_6 <= 1
 Y23M3_9 <= 1
 Y31M2_3 <= 1
 Y31M2_5 <= 1
 Y31M3_8 <= 1
 Y32M2_6 <= 1
 Y32M3_9 <= 1
bin
 X11M1
 X11M2
 X12M2
 X12M3
 X21M1
 X21M3
 X22M1
 X22M2
 X31M2
 X31M3
 Y12M1_0
 Y12M1_1
 Y12M2_2
 Y12M2_4
 Y12M3_7
 Y13M2_3
 Y13M2_5
 Y13M3_8
 Y21M1_0
 Y21M1_1
 Y21M2_2
 Y21M2_4
 Y21M3_7
 Y23M2_6
 Y23M3_9
 Y31M2_3
 Y31M2_5
 Y31M3_8
 Y32M2_6
 Y32M3_9
gen
semi
end
